 Geometry = GenFormat {
   <<< "LOWDIN.gen"
 }
  
 Driver = {}
 
 Hamiltonian = DFTB {
 SCC = Yes
 SCCTolerance = 1.00E-6
 MaxSCCIterations = 1000
 MaxAngularMomentum {
 H = "s"
 C = "p"
 }
 SlaterKosterFiles = Type2FileNames {
 Separator = "-"
 Suffix  = ".skf"
 }
 Dispersion = {}
 ThirdOrder = Yes
 HubbardDerivs {
 O = -0.14
 H = -0.07
 C = -0.04
 }
 DampXH = Yes
 DampXHExponent = 4.95
 }
 
 Options = {
 WriteAutotestTag = Yes
 CalculateForces = Yes
 }
 
 ParserOptions = {
 ParserVersion = 4
 }
