 Geometry = GenFormat {
   <<< "LOWDIN.gen"
 }
  
 Driver = {}
 
 Hamiltonian = DFTB {
 SCC = Yes
 SCCTolerance = 1.00E-6
 MaxSCCIterations = 1000
 MaxAngularMomentum {
 H = "s"
 O = "p"
 }
 SlaterKosterFiles = Type2FileNames {
 Prefix = "/opt/dftbplus-18.2/external/slakos/origin/mio-1-1/"
 Separator = "-"
 Suffix  = ".skf"
 }
 Dispersion = {}
 ThirdOrder = Yes
 HubbardDerivs {
 O = -0.14
 H = -0.07
 }
 HCorrection = Damping {
 Exponent = 4.05
 }
 }
 
 Options = {
 WriteDetailedXML = Yes
 }
 
 Analysis = {
 WriteEigenvectors = Yes
 EigenvectorsAsTxt = Yes
 ElectrostaticPotential = {
 Grid = {
 GridPoints = 20 20 20
 Origin = 0 0 0
 Spacing = 0.1 0.1 0.1
 Directions = 1 0 0 0 1 0 0 0 1
 }
 }
 }
 
 ParserOptions = {
 ParserVersion = 6
 }
