! ================================================================
! This file was generated by Gabedit
! ================================================================
 $SYSTEM MWORDS=20 $END
 $CONTRL RUNTYP=energy $END
 $CONTRL SCFTYP=RHF ispher=1 $END
 $CONTRL ICHARG=0  MULT=1 $END
 $basis gbasis=n311 ngauss=6 diffsp=.t. diffs=.t.
 npfunc=1 ndfunc=1 $end
 $DATA
Molecule specification
C1
H 1.0  0 0 0
C 6.0  0 0 1.059
N 7.0  0 0 2.186
 $END

