! ================================================================
! This file was generated by Gabedit
! ================================================================
 $SYSTEM MWORDS=20 $END
 $CONTRL RUNTYP=energy $END
 $CONTRL SCFTYP=RHF $END
 $CONTRL ICHARG=-2  MULT=1 maxit=200 $END
 $scf    dirscf=.f. soscf=.f. diis=.t. ethrsh=1.5  $end
 $NEO    NEOSCF=diagzn basnuc=readin
         nucst=1 dirnuc=.f.
         numult=2 symnuc=.t.
         NUNIQN=1 IUNIQN(1)=1
         qmtoln=0
         posneo=.t. posprp=.t.
         NTAUXB=2 IAUXNB(1)=2,3
         $END
 $basis gbasis=n311 ngauss=6 diffsp=.t. diffs=.t.
 npfunc=1 ndfunc=1 $end
 $DATA
Molecule specification
C1
X 0.0  0 0 2.186
X 0.0  0 0 0
X 0.0  0 0 1.059
H 1.0  0 0 0
C 6.0  0 0 1.059
N 7.0  0 0 2.186
 $END


